\LP file generated from the problem `SubProb' by the
\Xpress Builder Component Library Xpress BCL

Maximize
OBJ: 12 I + 12 I_1 + 12 B + 12 B_1

Subject To
ConstraintInv2_1: I_1 >= 0
ConstraintBac22: B_1 + 23 alpha_1 <= 23
ConstraintInv22: I_1 - 23 alpha_1 <= 0
ConstraintBacj2: B_1 >= 0
ConstraintInv2: I_1 >= 0
ConstraintInv1_1: I >= 0
ConstraintBac21: B + 23 alpha <= 23
ConstraintInv21: I - 23 alpha <= 0
ConstraintBacj1: B >= 0
ConstraintInv1: I >= 0
Constraintdelta6222: delta_7 >= 0
Constraintdelta5222: delta_7 <= 1
Constraintdelta6221: delta_6 >= 0
Constraintdelta5221: delta_6 <= 1
Constraintdelta6122: delta_3 >= 0
Constraintdelta5122: delta_3 <= 1
Constraintdelta6121: delta_2 >= 0
Constraintdelta5121: delta_2 <= 1
Constraintdelta6212: delta_5 >= 0
Constraintdelta5212: delta_5 <= 1
Constraintdelta4212: delta_5 = 0
Constraintdelta6211: delta_4 >= 0
Constraintdelta5211: delta_4 <= 1
Constraintdelta6112: delta_1 >= 0
Constraintdelta5112: delta_1 <= 1
Constraintdelta6111: delta >= 0
Constraintdelta5111: delta <= 1
Constraintdelta1122: delta_5 - delta_7 <= 0
Constraintdelta1121: delta_4 - delta_6 <= 0
Constraintdelta1112: delta_1 - delta_3 <= 0
Constraintdelta1111: delta - delta_2 <= 0
ConstraintInventoryBack2: I_1 - B_1 = -23
ConstraintInventoryBack1: I - B = -9

Bounds

Binaries
alpha alpha_1 

End
